39452221939877914035014,15,1,2,08,1,1,2,06,3,1,2,09,1,1,2,08,9,1,2,01,14,1,2,08,15,1,2,012,10,1,2,013,14,1,2,03,10,1,2,09,2,1,2,015,15,1,2,014,7,1,2,03,9,1,2,012,6,1,2,03,11,1,2,011,10,1,2,014,9,1,2,015,9,1,2,09,15,1,2,010,1,1,2,014,8,1,2,05,14,1,2,07,1,1,2,011,7,1,2,04,7,1,2,07,10,1,2,06,14,1,2,013,10,1,2,01,3,1,2,03,10,1,2,014,15,1,2,010,13,1,2,09,8,1,2,05,6,1,2,02,3,1,2,05,1,1,2,08,2,1,2,05,11,1,2,014,10,1,2,05,6,1,2,011,5,1,2,06,7,1,2,011,7,1,2,03,7,1,2,013,2,1,2,011,8,1,2,09,11,1,2,02,2,1,2,08,5,1,2,0